&CONTROL
  calculation='nscf'
  restart_mode='from_scratch'
  prefix='qb'
  outdir='../tmp'
  pseudo_dir='./pp'
/

&SYSTEM
  ibrav = 0
  nat = 9
  ntyp = 2
  occupations='tetrahedra'
  ecutwfc=50
  ecutrho=400
/

&ELECTRONS
/

ATOMIC_SPECIES
  Si   28.08500  Si.pbe-n-kjpaw_psl.1.0.0.UPF
   O   15.99900   O.pbe-n-kjpaw_psl.1.0.0.UPF

K_POINTS {automatic}
  4 4 4 1 1 1

CELL_PARAMETERS {angstrom}
  4.341385349171390  -2.506500000000000   0.000000000000000 
  0.000000000000000   5.013000000000000   0.000000000000000 
  0.000000000000000   0.000000000000000   5.470000000000000 

ATOMIC_POSITIONS {crystal}
  Si   0.500000000000000   0.500000000000000   0.333333333333333 
  Si   0.000000000000000   0.500000000000000   0.666666666666667 
  Si   0.500000000000000   0.000000000000000   0.000000000000000 
  O   0.197000000000000   0.803000000000000   0.833333333333333 
  O   0.606000000000000   0.803000000000000   0.166666666666667 
  O   0.394000000000000   0.197000000000000   0.166666666666667 
  O   0.803000000000000   0.197000000000000   0.833333333333333 
  O   0.803000000000000   0.606000000000000   0.500000000000000 
  O   0.197000000000000   0.394000000000000   0.500000000000000 
