&dos
outdir = '../tmp',
prefix = 'qa',
fildos = 'qa.dos',
/